Route #1: 51 33 1 62 28 2
Route #2: 6 61 21 47 48 30
Route #3: 22 64 42 43 41 56 23 63
Route #4: 16 49 24 18 50 55 25
Route #5: 12 40 32 44 3
Route #6: 11 59 14 19 54
Route #7: 13 57 15 37 20 60 36 5 29
Route #8: 45 27 52 8 46 34
Route #9: 58 10 31 9 39
Route #10: 17 38 53 35 7 4
Route #11: 26
Cost 855